11
0 85 48 25 20 41 17 25 39 30 99 
82 0 20 67 70 13 80 31 67 13 91 
49 27 0 10 77 96 91 99 31 31 14 
85 94 85 0 75 44 25 4 26 77 100 
59 52 44 95 0 28 21 10 3 50 26 
75 51 12 71 98 0 23 38 38 37 30 
89 5 71 4 10 64 0 63 14 57 23 
10 44 56 66 8 15 77 0 2 39 13 
23 51 1 94 34 26 75 57 0 80 86 
81 34 36 21 12 48 85 36 10 0 81 
66 47 73 21 4 21 74 17 31 52 0 
